p cnf 196 112
-41 1 2 3 4 5 8 9 11 12 13 14 15 16 17 18 20 21 22 23 24 26 28 29 30 32 37 38 39 43 45 46 47 48 49 59 60 61 62 65 66 67 68 84 85 90 92 93 131 140 141 142 143 146 155 174 191 -108 -117 -192 -194 0 
-42 6 7 27 44 75 79 80 81 82 83 86 87 88 89 94 116 126 127 128 129 130 132 133 134 135 144 145 148 152 153 154 156 157 158 159 160 161 163 164 165 191 -108 -117 -192 -194 0 
-7 6 27 42 44 75 79 80 81 82 83 86 87 88 89 94 116 126 127 128 129 130 132 133 134 135 144 145 148 152 153 154 156 157 158 159 160 161 163 164 165 191 -108 -117 -192 -194 0 
-50 192 -194 0 
-51 54 72 166 192 -194 0 
-52 192 -194 0 
-53 123 192 -194 0 
-50 193 -56 0 
-54 51 72 166 -55 73 74 187 189 -56 193 193 -56 0 
-69 101 177 -70 193 -56 0 
-71 107 114 169 -56 193 193 -56 0 
-72 51 54 166 -56 193 -73 55 74 187 189 193 -56 0 
-54 51 72 166 -56 193 -74 55 73 187 189 193 -56 0 
-75 6 7 27 42 44 79 80 81 82 83 86 87 88 89 94 116 126 127 128 129 130 132 133 134 135 144 145 148 152 153 154 156 157 158 159 160 161 163 164 165 -76 110 -71 107 114 169 -56 193 193 -56 0 
-77 124 137 167 -78 -56 193 -73 55 74 187 189 193 -56 0 
-8 1 2 3 4 5 9 11 12 13 14 15 16 17 18 20 21 22 23 24 26 28 29 30 32 37 38 39 41 43 45 46 47 48 49 59 60 61 62 65 66 67 68 84 85 90 92 93 131 140 141 142 143 146 155 174 191 -108 -117 -192 -194 0 
-79 6 7 27 42 44 75 80 81 82 83 86 87 88 89 94 116 126 127 128 129 130 132 133 134 135 144 145 148 152 153 154 156 157 158 159 160 161 163 164 165 191 -108 -117 -192 -194 0 
-80 6 7 27 42 44 75 79 81 82 83 86 87 88 89 94 116 126 127 128 129 130 132 133 134 135 144 145 148 152 153 154 156 157 158 159 160 161 163 164 165 191 -108 -117 -192 -194 0 
-81 6 7 27 42 44 75 79 80 82 83 86 87 88 89 94 116 126 127 128 129 130 132 133 134 135 144 145 148 152 153 154 156 157 158 159 160 161 163 164 165 191 -108 -117 -192 -194 0 
-82 6 7 27 42 44 75 79 80 81 83 86 87 88 89 94 116 126 127 128 129 130 132 133 134 135 144 145 148 152 153 154 156 157 158 159 160 161 163 164 165 191 -108 -117 -192 -194 0 
-83 6 7 27 42 44 75 79 80 81 82 86 87 88 89 94 116 126 127 128 129 130 132 133 134 135 144 145 148 152 153 154 156 157 158 159 160 161 163 164 165 191 -108 -117 -192 -194 0 
-84 1 2 3 4 5 8 9 11 12 13 14 15 16 17 18 20 21 22 23 24 26 28 29 30 32 37 38 39 41 43 45 46 47 48 49 59 60 61 62 65 66 67 68 85 90 92 93 131 140 141 142 143 146 155 174 191 -108 -117 -192 -194 0 
-85 1 2 3 4 5 8 9 11 12 13 14 15 16 17 18 20 21 22 23 24 26 28 29 30 32 37 38 39 41 43 45 46 47 48 49 59 60 61 62 65 66 67 68 84 90 92 93 131 140 141 142 143 146 155 174 191 -108 -117 -192 -194 0 
-86 6 7 27 42 44 75 79 80 81 82 83 87 88 89 94 116 126 127 128 129 130 132 133 134 135 144 145 148 152 153 154 156 157 158 159 160 161 163 164 165 191 -108 -117 -192 -194 0 
-87 6 7 27 42 44 75 79 80 81 82 83 86 88 89 94 116 126 127 128 129 130 132 133 134 135 144 145 148 152 153 154 156 157 158 159 160 161 163 164 165 191 -108 -117 -192 -194 0 
-88 6 7 27 42 44 75 79 80 81 82 83 86 87 89 94 116 126 127 128 129 130 132 133 134 135 144 145 148 152 153 154 156 157 158 159 160 161 163 164 165 191 -108 -117 -192 -194 0 
-94 6 7 27 42 44 75 79 80 81 82 83 86 87 88 89 116 126 127 128 129 130 132 133 134 135 144 145 148 152 153 154 156 157 158 159 160 161 163 164 165 194 -192 0 
-95 121 138 192 -194 0 
-40 31 35 57 64 102 175 194 -192 0 
-96 97 168 182 186 194 -192 0 
-97 96 168 182 186 194 -192 0 
-98 192 -194 0 
-99 -100 192 -194 0 
-101 69 177 194 -192 0 
-102 31 35 40 57 64 175 194 -192 0 
-103 178 194 -192 0 
-104 125 194 -192 0 
-105 171 192 -194 0 
-76 110 -106 192 -194 0 
-107 71 114 169 -97 96 168 182 186 194 -192 0 
-108 117 -109 19 34 58 63 91 136 194 -192 0 
-110 76 192 -194 0 
-69 101 177 192 -194 0 
-70 -98 192 -194 0 
-111 192 -194 0 
-56 193 192 -194 0 
-112 194 -192 0 
-113 122 181 194 -192 0 
-56 193 195 -192 -194 0 
-69 101 177 194 -192 0 
-114 71 107 169 -56 193 -115 120 193 -56 0 
-97 96 168 182 186 -55 73 74 187 189 194 -192 0 
-114 71 107 169 -116 6 7 27 42 44 75 79 80 81 82 83 86 87 88 89 94 126 127 128 129 130 132 133 134 135 144 145 148 152 153 154 156 157 158 159 160 161 163 164 165 -55 73 74 187 189 192 -194 0 
-110 76 -55 73 74 187 189 191 -108 -117 -192 -194 0 
-55 73 74 187 189 192 -194 0 
-117 108 -113 122 181 -55 73 74 187 189 192 -194 0 
-53 123 -69 101 177 -55 73 74 187 189 192 -194 0 
-118 -55 73 74 187 189 192 -194 0 
-119 195 -192 -194 0 
-120 115 192 -194 0 
-121 95 138 194 -192 0 
-122 113 181 192 -194 0 
-123 53 192 -194 0 
-124 77 137 167 191 -108 -117 -192 -194 0 
-125 104 194 -192 0 
-114 71 107 169 -69 101 177 -55 73 74 187 189 192 -194 0 
-137 77 124 167 -138 95 121 194 -192 0 
-109 19 34 58 63 91 136 -107 71 114 169 194 -192 0 
-139 194 -192 0 
-72 51 54 166 195 -192 -194 0 
-40 31 35 57 64 102 175 -78 192 -194 0 
-114 71 107 169 -116 6 7 27 42 44 75 79 80 81 82 83 86 87 88 89 94 126 127 128 129 130 132 133 134 135 144 145 148 152 153 154 156 157 158 159 160 161 163 164 165 -56 193 192 -194 0 
-149 151 170 192 -194 0 
-150 -52 -151 149 170 192 -194 0 
-40 31 35 57 64 102 175 -34 19 58 63 91 109 136 194 -192 0 
-107 71 114 169 194 -192 0 
-69 101 177 191 -108 -117 -192 -194 0 
-114 71 107 169 -69 101 177 -56 193 192 -194 0 
-166 51 54 72 192 -194 0 
-167 77 124 137 192 -194 0 
-168 96 97 182 186 192 -194 0 
-72 51 54 166 192 -194 0 
-96 97 168 182 186 -169 71 107 114 -106 192 -194 0 
-170 149 151 194 -192 0 
-109 19 34 58 63 91 136 194 -192 0 
-171 105 -102 31 35 40 57 64 175 194 -192 0 
-108 117 -96 97 168 182 186 194 -192 0 
-25 -169 71 107 114 192 -194 0 
-172 192 -194 0 
-171 105 -98 194 -192 0 
-114 71 107 169 -98 192 -194 0 
-173 -98 194 -192 0 
-176 192 -194 0 
-177 69 101 195 -192 -194 0 
-106 192 -194 0 
-123 53 -178 103 195 -192 -194 0 
-179 192 -194 0 
-180 196 -192 -194 0 
-123 53 -181 113 122 -182 96 97 168 186 -127 6 7 27 42 44 75 79 80 81 82 83 86 87 88 89 94 116 126 128 129 130 132 133 134 135 144 145 148 152 153 154 156 157 158 159 160 161 163 164 165 195 -192 -194 0 
-183 33 162 -184 192 -194 0 
-72 51 54 166 -96 97 168 182 186 -106 192 -194 0 
-107 71 114 169 -98 194 -192 0 
-185 192 -194 0 
-186 96 97 168 182 192 -194 0 
-110 76 -56 193 191 -108 -117 -192 -194 0 
-76 110 -151 149 170 -56 193 -187 55 73 74 189 192 -194 0 
-97 96 168 182 186 -188 -189 55 73 74 187 194 -192 0 
-117 108 -113 122 181 -56 193 192 -194 0 
-97 96 168 182 186 -188 194 -192 0 
-53 123 -69 101 177 -56 193 192 -194 0 
-118 -56 193 192 -194 0 
-190 192 -194 0 
